200
750
598
595
591
588
588
585
585
583
578
571
570
569
566
566
565
563
560
560
559
556
551
550
545
545
541
540
539
535
531
527
526
525
524
516
513
512
512
511
510
509
507
503
498
496
496
492
485
483
483
477
472
469
465
465
460
460
460
452
449
447
443
438
427
421
415
409
396
396
395
394
392
391
390
388
386
385
384
382
382
373
367
364
363
358
357
356
351
349
348
345
344
332
332
330
328
324
316
316
314
310
301
299
296
295
292
285
284
281
281
279
278
277
277
276
274
273
268
267
265
261
259
258
255
255
255
248
246
244
243
242
240
240
238
238
236
234
232
230
225
223
219
219
217
213
212
212
206
206
204
195
194
186
186
185
184
180
175
170
169
168
168
164
163
154
150
144
142
141
140
138
136
135
132
129
124
122
118
117
116
114
112
110
110
108
104
97
96
93
90
88
87
86
85
85
84
84
82
82
78
78
